(set-option :print-success true)
(set-option :produce-models true)
(set-logic ALL)
(declare-sort Unspecified 0)
(declare-sort Unit 0)
(declare-const loaded_value_0 (_ BitVec 64))
(declare-const clif_load_active_1 Bool)
(declare-const clif_load_size_bits_2 Int)
(declare-const clif_load_addr_3 (_ BitVec 64))
(declare-const clif_store_active_4 Bool)
(declare-const clif_store_size_bits_5 Int)
(declare-const clif_store_addr_6 (_ BitVec 64))
(declare-const clif_store_value_7 (_ BitVec 64))
(declare-const clif_trap_8 Bool)
(declare-const isa_load_active_9 Bool)
(declare-const isa_load_size_bits_10 Int)
(declare-const isa_load_addr_11 (_ BitVec 64))
(declare-const isa_store_active_12 Bool)
(declare-const isa_store_size_bits_13 Int)
(declare-const isa_store_addr_14 (_ BitVec 64))
(declare-const isa_store_value_15 (_ BitVec 64))
(declare-const b0_16 (_ BitVec 1))
(declare-const b3_some_17 Bool)
(declare-const b3_inner_0_aligned_18 Bool)
(declare-const b3_inner_0_trapcode_19 (_ BitVec 4))
(declare-const b3_inner_1_20 (_ BitVec 64))
(declare-const b3_inner_2_21 (_ BitVec 64))
(declare-const b3_inner_3_22 (_ BitVec 32))
(declare-const e23 Bool)
(assert (! (= e23 true) :named expr23))
(declare-const e24 Int)
(assert (! (= e24 64) :named expr24))
(declare-const e25 Bool)
(assert (! (= e25 (= clif_store_size_bits_5 e24)) :named expr25))
(declare-const e26 Int)
(assert (! (= e26 64) :named expr26))
(declare-const e27 (_ BitVec 64))
(assert (! (= e27 ((_ sign_extend 32) b3_inner_3_22)) :named expr27))
(declare-const e28 (_ BitVec 64))
(assert (! (= e28 (bvadd b3_inner_2_21 e27)) :named expr28))
(declare-const e29 Bool)
(assert (! (= e29 (= clif_store_addr_6 e28)) :named expr29))
(declare-const e30 (_ BitVec 64))
(assert (! (= e30 clif_store_value_7) :named expr30))
(declare-const e31 Bool)
(assert (! (= e31 (= e30 b3_inner_1_20)) :named expr31))
(declare-const e32 Bool)
(assert (! (= e32 (and e29 e31)) :named expr32))
(declare-const e33 Bool)
(assert (! (= e33 (and e25 e32)) :named expr33))
(declare-const e34 Bool)
(assert (! (= e34 (and clif_store_active_4 e33)) :named expr34))
(declare-const e35 (_ BitVec 1))
(assert (! (= e35 #b1) :named expr35))
(declare-const e36 Bool)
(assert (! (= e36 (= b0_16 e35)) :named expr36))
(declare-const e37 Bool)
(assert (! (= e37 (and e34 e36)) :named expr37))
(declare-const e38 Bool)
(assert (! (= e38 (= b3_some_17 e23)) :named expr38))
(declare-const e39 Bool)
(assert (! (= e39 (=> e23 e37)) :named expr39))
(declare-const b4_0_aligned_40 Bool)
(declare-const b4_0_trapcode_41 (_ BitVec 4))
(declare-const b4_1_42 (_ BitVec 64))
(declare-const b4_2_43 (_ BitVec 64))
(declare-const b4_3_44 (_ BitVec 32))
(declare-const e45 Bool)
(assert (! (= e45 (= b4_0_aligned_40 b3_inner_0_aligned_18)) :named expr45))
(declare-const e46 Bool)
(assert (! (= e46 (= b4_0_trapcode_41 b3_inner_0_trapcode_19)) :named expr46))
(declare-const e47 Bool)
(assert (! (= e47 (and e45 e46)) :named expr47))
(declare-const e48 Bool)
(assert (! (= e48 (= b4_1_42 b3_inner_1_20)) :named expr48))
(declare-const e49 Bool)
(assert (! (= e49 (= b4_2_43 b3_inner_2_21)) :named expr49))
(declare-const e50 Bool)
(assert (! (= e50 (= b4_3_44 b3_inner_3_22)) :named expr50))
(declare-const e51 Bool)
(assert (! (= e51 (and e47 e48)) :named expr51))
(declare-const e52 Bool)
(assert (! (= e52 (and e51 e49)) :named expr52))
(declare-const e53 Bool)
(assert (! (= e53 (and e52 e50)) :named expr53))
(declare-const e54 Bool)
(assert (! (= e54 (=> b3_some_17 e53)) :named expr54))
(declare-const b5_55 (_ BitVec 64))
(declare-const e56 Bool)
(assert (! (= e56 (= b5_55 b4_1_42)) :named expr56))
(declare-const b6_bits_57 Int)
(declare-const e58 Int)
(assert (! (= e58 64) :named expr58))
(declare-const e59 Bool)
(assert (! (= e59 (= b6_bits_57 e58)) :named expr59))
(declare-const b7_some_60 Bool)
(declare-const b7_inner_bits_61 Int)
(declare-const e62 Bool)
(assert (! (= e62 (= b6_bits_57 b7_inner_bits_61)) :named expr62))
(declare-const e63 Bool)
(assert (! (= e63 (= b7_some_60 e23)) :named expr63))
(declare-const e64 Bool)
(assert (! (= e64 (=> e23 e62)) :named expr64))
(declare-const b8_aligned_65 Bool)
(declare-const b8_trapcode_66 (_ BitVec 4))
(declare-const e67 Bool)
(assert (! (= e67 (= b8_aligned_65 b4_0_aligned_40)) :named expr67))
(declare-const e68 Bool)
(assert (! (= e68 (= b8_trapcode_66 b4_0_trapcode_41)) :named expr68))
(declare-const e69 Bool)
(assert (! (= e69 (and e67 e68)) :named expr69))
(declare-const b9_70 (_ BitVec 64))
(declare-const e71 Bool)
(assert (! (= e71 (= b9_70 b4_2_43)) :named expr71))
(declare-const b10_72 (_ BitVec 32))
(declare-const e73 Bool)
(assert (! (= e73 (= b10_72 b4_3_44)) :named expr73))
(declare-const b12_74 (_ BitVec 64))
(declare-const b53_addr_75 (_ BitVec 64))
(declare-const b53_flags_aligned_76 Bool)
(declare-const b53_flags_trapcode_77 (_ BitVec 4))
(declare-const b52_78 (_ BitVec 32))
(declare-const b46_79 (_ BitVec 32))
(declare-const b45_80 (_ BitVec 32))
(declare-const b44_some_81 Bool)
(declare-const b44_inner_82 (_ BitVec 32))
(declare-const b42_83 (_ BitVec 32))
(declare-const e84 Bool)
(assert (! (= e84 (= b42_83 b10_72)) :named expr84))
(declare-const b43_85 (_ BitVec 32))
(declare-const b41_some_86 Bool)
(declare-const b41_inner_87 (_ BitVec 32))
(declare-const b34_88 (_ BitVec 64))
(declare-const b33_0_bits_89 Int)
(declare-const b33_1_90 (_ BitVec 64))
(declare-const b33_2_91 (_ BitVec 64))
(declare-const b32_some_92 Bool)
(declare-const b32_inner_0_bits_93 Int)
(declare-const b32_inner_1_94 (_ BitVec 64))
(declare-const b32_inner_2_95 (_ BitVec 64))
(declare-const b31_96 (_ BitVec 64))
(declare-const b30_some_97 Bool)
(declare-const b30_inner_98 (_ BitVec 64))
(declare-const e99 Bool)
(assert (! (= e99 (= b9_70 b30_inner_98)) :named expr99))
(declare-const e100 Bool)
(assert (! (= e100 (= b30_some_97 e23)) :named expr100))
(declare-const e101 Bool)
(assert (! (= e101 (=> e23 e99)) :named expr101))
(declare-const e102 Bool)
(assert (! (= e102 (= b31_96 b30_inner_98)) :named expr102))
(declare-const e103 Bool)
(assert (! (= e103 (=> b30_some_97 e102)) :named expr103))
(declare-const e104 (_ BitVec 64))
(assert (! (= e104 (bvadd b32_inner_1_94 b32_inner_2_95)) :named expr104))
(declare-const e105 Bool)
(assert (! (= e105 (= b31_96 e104)) :named expr105))
(declare-const e106 Bool)
(assert (! (= e106 (= b32_some_92 e23)) :named expr106))
(declare-const e107 Bool)
(assert (! (= e107 (=> e23 e105)) :named expr107))
(declare-const e108 Bool)
(assert (! (= e108 (= b33_0_bits_89 b32_inner_0_bits_93)) :named expr108))
(declare-const e109 Bool)
(assert (! (= e109 (= b33_1_90 b32_inner_1_94)) :named expr109))
(declare-const e110 Bool)
(assert (! (= e110 (= b33_2_91 b32_inner_2_95)) :named expr110))
(declare-const e111 Bool)
(assert (! (= e111 (and e108 e109)) :named expr111))
(declare-const e112 Bool)
(assert (! (= e112 (and e111 e110)) :named expr112))
(declare-const e113 Bool)
(assert (! (= e113 (=> b32_some_92 e112)) :named expr113))
(declare-const e114 Bool)
(assert (! (= e114 (= b34_88 b33_1_90)) :named expr114))
(declare-const e115 (_ BitVec 64))
(assert (! (= e115 b34_88) :named expr115))
(declare-const e116 (_ BitVec 64))
(assert (! (= e116 #b0000000000000000000000000000000001111111111111111111111111111111) :named expr116))
(declare-const e117 Bool)
(assert (! (= e117 (bvsle e115 e116)) :named expr117))
(declare-const e118 (_ BitVec 64))
(assert (! (= e118 #b0000000000000000000000000000000010000000000000000000000000000000) :named expr118))
(declare-const e119 (_ BitVec 64))
(assert (! (= e119 (bvneg e118)) :named expr119))
(declare-const e120 Bool)
(assert (! (= e120 (bvsle e119 e115)) :named expr120))
(declare-const e121 (_ BitVec 32))
(assert (! (= e121 ((_ extract 31 0) e115)) :named expr121))
(declare-const e122 Bool)
(assert (! (= e122 (= b41_inner_87 e121)) :named expr122))
(declare-const e123 Bool)
(assert (! (= e123 (and e117 e120)) :named expr123))
(declare-const e124 Bool)
(assert (! (= e124 (= b41_some_86 e123)) :named expr124))
(declare-const e125 Bool)
(assert (! (= e125 (=> e123 e122)) :named expr125))
(declare-const e126 Bool)
(assert (! (= e126 (= b43_85 b41_inner_87)) :named expr126))
(declare-const e127 Bool)
(assert (! (= e127 (=> b41_some_86 e126)) :named expr127))
(declare-const e128 Bool)
(assert (! (= e128 (bvsaddo b42_83 b43_85)) :named expr128))
(declare-const e129 Bool)
(assert (! (= e129 (not e128)) :named expr129))
(declare-const e130 (_ BitVec 32))
(assert (! (= e130 (bvadd b42_83 b43_85)) :named expr130))
(declare-const e131 Bool)
(assert (! (= e131 (= b44_inner_82 e130)) :named expr131))
(declare-const e132 Bool)
(assert (! (= e132 (= b44_some_81 e129)) :named expr132))
(declare-const e133 Bool)
(assert (! (= e133 (=> e129 e131)) :named expr133))
(declare-const e134 Bool)
(assert (! (= e134 (= b45_80 b44_inner_82)) :named expr134))
(declare-const e135 Bool)
(assert (! (= e135 (=> b44_some_81 e134)) :named expr135))
(declare-const e136 Bool)
(assert (! (= e136 (= b46_79 b45_80)) :named expr136))
(declare-const e137 Bool)
(assert (! (= e137 (= b52_78 b46_79)) :named expr137))
(declare-const b51_138 (_ BitVec 64))
(declare-const b35_139 (_ BitVec 64))
(declare-const e140 Bool)
(assert (! (= e140 (= b35_139 b33_2_91)) :named expr140))
(declare-const e141 Int)
(assert (! (= e141 64) :named expr141))
(declare-const e142 Bool)
(assert (! (= e142 (<= e141 e26)) :named expr142))
(declare-const e143 (_ BitVec 64))
(assert (! (= e143 b35_139) :named expr143))
(declare-const e144 Bool)
(assert (! (= e144 (= b51_138 e143)) :named expr144))
(declare-const e145 (_ BitVec 64))
(assert (! (= e145 ((_ sign_extend 32) b52_78)) :named expr145))
(declare-const e146 (_ BitVec 64))
(assert (! (= e146 (bvadd b51_138 e145)) :named expr146))
(declare-const e147 Bool)
(assert (! (= e147 (= b53_addr_75 e146)) :named expr147))
(declare-const e148 Bool)
(assert (! (= e148 (= b53_flags_aligned_76 b8_aligned_65)) :named expr148))
(declare-const e149 Bool)
(assert (! (= e149 (= b53_flags_trapcode_77 b8_trapcode_66)) :named expr149))
(declare-const e150 Bool)
(assert (! (= e150 (and e148 e149)) :named expr150))
(declare-const e151 Bool)
(assert (! (= e151 (= b12_74 b53_addr_75)) :named expr151))
(declare-const b13_152 (_ BitVec 64))
(declare-const e153 (_ BitVec 64))
(assert (! (= e153 b5_55) :named expr153))
(declare-const e154 Bool)
(assert (! (= e154 (= b13_152 e153)) :named expr154))
(declare-const b14_bits_155 Int)
(declare-const e156 Bool)
(assert (! (= e156 (= b14_bits_155 b7_inner_bits_61)) :named expr156))
(declare-const e157 Bool)
(assert (! (= e157 (=> b7_some_60 e156)) :named expr157))
(declare-const b17_some_158 Bool)
(declare-const b17_inner_159 (_ BitVec 1))
(declare-const b20_160 (_ BitVec 1))
(declare-const e161 Bool)
(assert (! (= e161 (= b20_160 e35)) :named expr161))
(declare-const e162 Bool)
(assert (! (= e162 (= b20_160 b17_inner_159)) :named expr162))
(declare-const b19_163 (_ BitVec 1))
(declare-const b26_discriminant_164 Int)
(declare-const b26_Inst_inst_165 (_ BitVec 1))
(declare-const b26_Inst2_inst1_166 (_ BitVec 1))
(declare-const b26_Inst2_inst2_167 (_ BitVec 1))
(declare-const b26_Inst3_inst1_168 (_ BitVec 1))
(declare-const b26_Inst3_inst2_169 (_ BitVec 1))
(declare-const b26_Inst3_inst3_170 (_ BitVec 1))
(declare-const e171 Int)
(assert (! (= e171 0) :named expr171))
(declare-const e172 Int)
(assert (! (= e172 3) :named expr172))
(declare-const e173 Bool)
(assert (! (= e173 (<= e171 b26_discriminant_164)) :named expr173))
(declare-const e174 Bool)
(assert (! (= e174 (< b26_discriminant_164 e172)) :named expr174))
(declare-const e175 Bool)
(assert (! (= e175 (and e173 e174)) :named expr175))
(declare-const b25_176 (_ BitVec 1))
(declare-const b24_discriminant_177 Int)
(declare-const e178 Int)
(assert (! (= e178 4) :named expr178))
(declare-const e179 Bool)
(assert (! (= e179 (<= e171 b24_discriminant_177)) :named expr179))
(declare-const e180 Bool)
(assert (! (= e180 (< b24_discriminant_177 e178)) :named expr180))
(declare-const e181 Bool)
(assert (! (= e181 (and e179 e180)) :named expr181))
(declare-const e182 Int)
(assert (! (= e182 8) :named expr182))
(declare-const e183 Bool)
(assert (! (= e183 (= b14_bits_155 e182)) :named expr183))
(declare-const e184 Bool)
(assert (! (= e184 (<= e171 e171)) :named expr184))
(declare-const e185 Bool)
(assert (! (= e185 (< e171 e178)) :named expr185))
(declare-const e186 Bool)
(assert (! (= e186 (and e184 e185)) :named expr186))
(declare-const e187 Int)
(assert (! (= e187 16) :named expr187))
(declare-const e188 Bool)
(assert (! (= e188 (= b14_bits_155 e187)) :named expr188))
(declare-const e189 Int)
(assert (! (= e189 1) :named expr189))
(declare-const e190 Bool)
(assert (! (= e190 (<= e171 e189)) :named expr190))
(declare-const e191 Bool)
(assert (! (= e191 (< e189 e178)) :named expr191))
(declare-const e192 Bool)
(assert (! (= e192 (and e190 e191)) :named expr192))
(declare-const e193 Int)
(assert (! (= e193 32) :named expr193))
(declare-const e194 Bool)
(assert (! (= e194 (= b14_bits_155 e193)) :named expr194))
(declare-const e195 Int)
(assert (! (= e195 2) :named expr195))
(declare-const e196 Bool)
(assert (! (= e196 (<= e171 e195)) :named expr196))
(declare-const e197 Bool)
(assert (! (= e197 (< e195 e178)) :named expr197))
(declare-const e198 Bool)
(assert (! (= e198 (and e196 e197)) :named expr198))
(declare-const e199 Bool)
(assert (! (= e199 (= b14_bits_155 e26)) :named expr199))
(declare-const e200 Bool)
(assert (! (= e200 (<= e171 e172)) :named expr200))
(declare-const e201 Bool)
(assert (! (= e201 (< e172 e178)) :named expr201))
(declare-const e202 Bool)
(assert (! (= e202 (and e200 e201)) :named expr202))
(declare-const undef_203 Int)
(declare-const e204 Int)
(assert (! (= e204 (ite e199 e172 undef_203)) :named expr204))
(declare-const e205 Int)
(assert (! (= e205 (ite e194 e195 e204)) :named expr205))
(declare-const e206 Int)
(assert (! (= e206 (ite e188 e189 e205)) :named expr206))
(declare-const e207 Int)
(assert (! (= e207 (ite e183 e171 e206)) :named expr207))
(declare-const e208 Bool)
(assert (! (= e208 (= b24_discriminant_177 e207)) :named expr208))
(declare-const e209 Bool)
(assert (! (= e209 (= b24_discriminant_177 e171)) :named expr209))
(declare-const e210 Bool)
(assert (! (= e210 (=> e209 e23)) :named expr210))
(declare-const e211 Bool)
(assert (! (= e211 (= b24_discriminant_177 e189)) :named expr211))
(declare-const e212 Bool)
(assert (! (= e212 (=> e211 e23)) :named expr212))
(declare-const e213 Bool)
(assert (! (= e213 (= b24_discriminant_177 e195)) :named expr213))
(declare-const e214 Bool)
(assert (! (= e214 (=> e213 e23)) :named expr214))
(declare-const e215 Bool)
(assert (! (= e215 (= b24_discriminant_177 e172)) :named expr215))
(declare-const e216 Bool)
(assert (! (= e216 (=> e215 e23)) :named expr216))
(declare-const e217 Bool)
(assert (! (= e217 (and e208 e210)) :named expr217))
(declare-const e218 Bool)
(assert (! (= e218 (and e217 e212)) :named expr218))
(declare-const e219 Bool)
(assert (! (= e219 (and e218 e214)) :named expr219))
(declare-const e220 Bool)
(assert (! (= e220 (and e219 e216)) :named expr220))
(declare-const e221 Bool)
(assert (! (= e221 (= isa_store_active_12 e23)) :named expr221))
(declare-const e222 Bool)
(assert (! (= e222 (and e209 e210)) :named expr222))
(declare-const e223 Bool)
(assert (! (= e223 (and e222 e212)) :named expr223))
(declare-const e224 Bool)
(assert (! (= e224 (and e223 e214)) :named expr224))
(declare-const e225 Bool)
(assert (! (= e225 (and e224 e216)) :named expr225))
(declare-const e226 Bool)
(assert (! (= e226 (and e211 e210)) :named expr226))
(declare-const e227 Bool)
(assert (! (= e227 (and e226 e212)) :named expr227))
(declare-const e228 Bool)
(assert (! (= e228 (and e227 e214)) :named expr228))
(declare-const e229 Bool)
(assert (! (= e229 (and e228 e216)) :named expr229))
(declare-const e230 Bool)
(assert (! (= e230 (and e213 e210)) :named expr230))
(declare-const e231 Bool)
(assert (! (= e231 (and e230 e212)) :named expr231))
(declare-const e232 Bool)
(assert (! (= e232 (and e231 e214)) :named expr232))
(declare-const e233 Bool)
(assert (! (= e233 (and e232 e216)) :named expr233))
(declare-const e234 Bool)
(assert (! (= e234 (and e215 e210)) :named expr234))
(declare-const e235 Bool)
(assert (! (= e235 (and e234 e212)) :named expr235))
(declare-const e236 Bool)
(assert (! (= e236 (and e235 e214)) :named expr236))
(declare-const e237 Bool)
(assert (! (= e237 (and e236 e216)) :named expr237))
(declare-const undef_238 Int)
(declare-const e239 Int)
(assert (! (= e239 (ite e237 e26 undef_238)) :named expr239))
(declare-const e240 Int)
(assert (! (= e240 (ite e233 e193 e239)) :named expr240))
(declare-const e241 Int)
(assert (! (= e241 (ite e229 e187 e240)) :named expr241))
(declare-const e242 Int)
(assert (! (= e242 (ite e225 e182 e241)) :named expr242))
(declare-const e243 Bool)
(assert (! (= e243 (= isa_store_size_bits_13 e242)) :named expr243))
(declare-const e244 Bool)
(assert (! (= e244 (= isa_store_addr_14 b12_74)) :named expr244))
(declare-const e245 Bool)
(assert (! (= e245 (= isa_store_value_15 b13_152)) :named expr245))
(declare-const undef_Inst2_inst1_246 (_ BitVec 1))
(declare-const undef_Inst2_inst2_247 (_ BitVec 1))
(declare-const undef_Inst3_inst1_248 (_ BitVec 1))
(declare-const undef_Inst3_inst2_249 (_ BitVec 1))
(declare-const undef_Inst3_inst3_250 (_ BitVec 1))
(declare-const e251 Bool)
(assert (! (= e251 (< e171 e172)) :named expr251))
(declare-const e252 Bool)
(assert (! (= e252 (and e184 e251)) :named expr252))
(declare-const e253 Bool)
(assert (! (= e253 (= b26_discriminant_164 e171)) :named expr253))
(declare-const e254 Bool)
(assert (! (= e254 (= b26_Inst_inst_165 b25_176)) :named expr254))
(declare-const e255 Bool)
(assert (! (= e255 (=> e253 e254)) :named expr255))
(declare-const e256 Bool)
(assert (! (= e256 (= b26_discriminant_164 e189)) :named expr256))
(declare-const e257 Bool)
(assert (! (= e257 (= b26_Inst2_inst1_166 undef_Inst2_inst1_246)) :named expr257))
(declare-const e258 Bool)
(assert (! (= e258 (= b26_Inst2_inst2_167 undef_Inst2_inst2_247)) :named expr258))
(declare-const e259 Bool)
(assert (! (= e259 (and e257 e258)) :named expr259))
(declare-const e260 Bool)
(assert (! (= e260 (=> e256 e259)) :named expr260))
(declare-const e261 Bool)
(assert (! (= e261 (= b26_discriminant_164 e195)) :named expr261))
(declare-const e262 Bool)
(assert (! (= e262 (= b26_Inst3_inst1_168 undef_Inst3_inst1_248)) :named expr262))
(declare-const e263 Bool)
(assert (! (= e263 (= b26_Inst3_inst2_169 undef_Inst3_inst2_249)) :named expr263))
(declare-const e264 Bool)
(assert (! (= e264 (= b26_Inst3_inst3_170 undef_Inst3_inst3_250)) :named expr264))
(declare-const e265 Bool)
(assert (! (= e265 (and e262 e263)) :named expr265))
(declare-const e266 Bool)
(assert (! (= e266 (and e265 e264)) :named expr266))
(declare-const e267 Bool)
(assert (! (= e267 (=> e261 e266)) :named expr267))
(declare-const e268 Bool)
(assert (! (= e268 (and e253 e255)) :named expr268))
(declare-const e269 Bool)
(assert (! (= e269 (and e268 e260)) :named expr269))
(declare-const e270 Bool)
(assert (! (= e270 (and e269 e267)) :named expr270))
(declare-const e271 Bool)
(assert (! (= e271 (= b17_inner_159 b0_16)) :named expr271))
(declare-const e272 Bool)
(assert (! (= e272 (= b17_some_158 e23)) :named expr272))
(declare-const e273 Bool)
(assert (! (= e273 (=> e23 e271)) :named expr273))
(declare-const e274 Bool)
(assert (! (= e274 (not clif_load_active_1)) :named expr274))
(declare-const e275 Bool)
(assert (! (= e275 (not clif_store_active_4)) :named expr275))
(declare-const e276 Bool)
(assert (! (= e276 (= clif_store_size_bits_5 e189)) :named expr276))
(declare-const e277 Bool)
(assert (! (= e277 (and e275 e276)) :named expr277))
(declare-const e278 Bool)
(assert (! (= e278 (not e23)) :named expr278))
(declare-const e279 Bool)
(assert (! (= e279 (=> e278 e277)) :named expr279))
(declare-const e280 Bool)
(assert (! (= e280 (not clif_trap_8)) :named expr280))
(declare-const e281 Bool)
(assert (! (= e281 (not isa_load_active_9)) :named expr281))
(declare-const e282 Bool)
(assert (! (= e282 (not isa_store_active_12)) :named expr282))
(declare-const e283 Bool)
(assert (! (= e283 (= isa_store_size_bits_13 e189)) :named expr283))
(declare-const e284 Bool)
(assert (! (= e284 (and e282 e283)) :named expr284))
(declare-const e285 Bool)
(assert (! (= e285 (=> e278 e284)) :named expr285))
(push)
(assert (and e38 e39 e54 e56 e59 e63 e64 e69 e71 e73 e84 e100 e101 e103 e106 e107 e113 e114 e124 e125 e127 e132 e133 e135 e136 e137 e140 e144 e147 e150 e151 e154 e157 e161 b17_some_158 e162 e175 e181 e186 e192 e198 e202 e220 e186 e192 e198 e202 e221 e243 e244 e245 e252 e270 e23 e272 b3_some_17 b7_some_60 b30_some_97 b32_some_92 b41_some_86 b44_some_81 e23 e274 e279 e280 e281 e285))
(check-sat)
(pop)
(push)
(assert (not (=> (and e38 e39 e54 e56 e59 e63 e64 e69 e71 e73 e84 e100 e101 e103 e106 e107 e113 e114 e124 e125 e127 e132 e133 e135 e136 e137 e140 e144 e147 e150 e151 e154 e157 e161 b17_some_158 e162 e175 e181 e186 e192 e198 e202 e220 e186 e192 e198 e202 e221 e243 e244 e245 e252 e270 e23 e272 b3_some_17 b7_some_60 b30_some_97 b32_some_92 b41_some_86 b44_some_81 e23 e274 e279 e280 e281 e285) (and e142 e273))))
(check-sat)
(pop)
(exit)
